(set-logic ALL)
(declare-fun var0 () String)
(assert (str.in_re var0 (re.++ (re.* (re.+ (str.to_re "000"))) (re.++ (re.* (re.+ (str.to_re "1"))) (re.++ (re.* (re.* (str.to_re "22"))) (re.++ (re.union (re.* (str.to_re "3")) (re.* (str.to_re "444"))) (re.++ (re.union (re.* (str.to_re "555")) (re.* (str.to_re "66"))) (re.++ (re.union (re.union (str.to_re "77") (str.to_re "888")) (re.union (str.to_re "999") (str.to_re "a"))) (re.++ (re.+ (re.+ (str.to_re "bb"))) (re.++ (re.+ (re.union (str.to_re "cc") (str.to_re "d"))) (re.++ (re.+ (re.+ (str.to_re "ee"))) (re.++ (re.+ (re.union (str.to_re "fff") (str.to_re "g"))) (re.++ (re.+ (re.+ (str.to_re "hhh"))) (re.++ (re.* (re.union (str.to_re "iii") (str.to_re "jj"))) (re.++ (re.union (re.* (str.to_re "kk")) (re.* (str.to_re "ll"))) (re.++ (re.* (re.* (str.to_re "mmm"))) (re.++ (re.+ (re.union (str.to_re "n") (str.to_re "o"))) (re.++ (re.+ (re.* (str.to_re "p"))) (re.++ (re.* (re.* (str.to_re "qq"))) (re.++ (re.* (re.union (str.to_re "rr") (str.to_re "sss"))) (re.++ (re.* (re.* (str.to_re "t"))) (re.++ (re.+ (re.* (str.to_re "uu"))) (re.++ (re.union (re.* (str.to_re "vv")) (re.* (str.to_re "w"))) (re.++ (re.+ (re.+ (str.to_re "x"))) (re.++ (re.* (re.union (str.to_re "y") (str.to_re "zz"))) (re.++ (re.+ (re.union (str.to_re "AAA") (str.to_re "BB"))) (re.++ (re.union (re.+ (str.to_re "CCC")) (re.+ (str.to_re "DD"))) (re.++ (re.+ (re.+ (str.to_re "EE"))) (re.++ (re.+ (re.+ (str.to_re "FFF"))) (re.++ (re.union (re.+ (str.to_re "G")) (re.+ (str.to_re "HH"))) (re.++ (re.union (re.union (str.to_re "III") (str.to_re "JJJ")) (re.union (str.to_re "KKK") (str.to_re "LLL"))) (re.++ (re.union (re.* (str.to_re "MM")) (re.* (str.to_re "N"))) (re.++ (re.+ (re.union (str.to_re "O") (str.to_re "P"))) (re.++ (re.+ (re.+ (str.to_re "Q"))) (re.++ (re.+ (re.+ (str.to_re "RRR"))) (re.++ (re.union (re.* (str.to_re "S")) (re.* (str.to_re "TT"))) (re.++ (re.* (re.* (str.to_re "UU"))) (re.++ (re.+ (re.* (str.to_re "VV"))) (re.++ (re.+ (re.+ (str.to_re "WWW"))) (re.++ (re.* (re.union (str.to_re "XXX") (str.to_re "YYY"))) (re.++ (re.* (re.* (str.to_re "ZZZ"))) (re.++ (re.union (re.+ (str.to_re "!")) (re.+ (str.to_re """"))) (re.++ (re.union (re.+ (str.to_re "###")) (re.+ (str.to_re "$"))) (re.++ (re.+ (re.+ (str.to_re "%%"))) (re.++ (re.* (re.union (str.to_re "&&") (str.to_re "'''"))) (re.++ (re.union (re.+ (str.to_re "((")) (re.+ (str.to_re ")"))) (re.++ (re.* (re.union (str.to_re "*") (str.to_re "++"))) (re.++ (re.union (re.+ (str.to_re ",")) (re.+ (str.to_re "-"))) (re.++ (re.+ (re.union (str.to_re ".") (str.to_re "///"))) (re.++ (re.* (re.+ (str.to_re "::"))) (re.++ (re.union (re.union (str.to_re ";;") (str.to_re "<<<")) (re.union (str.to_re "=") (str.to_re ">>>"))) (re.++ (re.+ (re.+ (str.to_re "???"))) (re.++ (re.* (re.+ (str.to_re "@@"))) (re.++ (re.+ (re.+ (str.to_re "[[["))) (re.++ (re.+ (re.union (str.to_re "\\") (str.to_re "]"))) (re.++ (re.union (re.+ (str.to_re "^^")) (re.+ (str.to_re "___"))) (re.++ (re.+ (re.* (str.to_re "```"))) (re.++ (re.union (re.+ (str.to_re "{")) (re.+ (str.to_re "|||"))) (re.++ (re.* (re.* (str.to_re "}"))) (re.++ (re.* (re.union (str.to_re "~") (str.to_re "00"))) (re.++ (re.union (re.+ (str.to_re "1")) (re.+ (str.to_re "2"))) (re.++ (re.union (re.+ (str.to_re "333")) (re.+ (str.to_re "4"))) (re.++ (re.* (re.union (str.to_re "5") (str.to_re "666"))) (re.++ (re.* (re.* (str.to_re "77"))) (re.++ (re.* (re.* (str.to_re "888"))) (re.++ (re.+ (re.union (str.to_re "9") (str.to_re "aaa"))) (re.++ (re.* (re.+ (str.to_re "bbb"))) (re.++ (re.+ (re.union (str.to_re "c") (str.to_re "dd"))) (re.++ (re.+ (re.+ (str.to_re "eee"))) (re.++ (re.+ (re.union (str.to_re "fff") (str.to_re "ggg"))) (re.++ (re.union (re.union (str.to_re "hh") (str.to_re "iii")) (re.union (str.to_re "j") (str.to_re "kkk"))) (re.++ (re.+ (re.union (str.to_re "lll") (str.to_re "mmm"))) (re.++ (re.* (re.* (str.to_re "nn"))) (re.++ (re.* (re.+ (str.to_re "o"))) (re.++ (re.* (re.* (str.to_re "ppp"))) (re.++ (re.+ (re.* (str.to_re "qq"))) (re.++ (re.+ (re.union (str.to_re "rrr") (str.to_re "s"))) (re.++ (re.+ (re.union (str.to_re "ttt") (str.to_re "u"))) (re.++ (re.+ (re.union (str.to_re "vv") (str.to_re "w"))) (re.++ (re.+ (re.union (str.to_re "xx") (str.to_re "y"))) (re.++ (re.union (re.+ (str.to_re "z")) (re.+ (str.to_re "AA"))) (re.++ (re.* (re.+ (str.to_re "B"))) (re.++ (re.+ (re.union (str.to_re "CCC") (str.to_re "DDD"))) (re.++ (re.+ (re.union (str.to_re "EE") (str.to_re "FFF"))) (re.++ (re.union (re.+ (str.to_re "G")) (re.+ (str.to_re "HHH"))) (re.++ (re.* (re.union (str.to_re "III") (str.to_re "JJJ"))) (re.++ (re.+ (re.+ (str.to_re "KK"))) (re.++ (re.* (re.union (str.to_re "LL") (str.to_re "M"))) (re.++ (re.union (re.* (str.to_re "N")) (re.* (str.to_re "OOO"))) (re.++ (re.union (re.union (str.to_re "P") (str.to_re "QQ")) (re.union (str.to_re "RR") (str.to_re "SS"))) (re.++ (re.+ (re.union (str.to_re "T") (str.to_re "UUU"))) (re.++ (re.+ (re.+ (str.to_re "V"))) (re.++ (re.union (re.+ (str.to_re "WWW")) (re.+ (str.to_re "XXX"))) (re.++ (re.* (re.+ (str.to_re "YY"))) (re.++ (re.* (re.* (str.to_re "ZZZ"))) (re.++ (re.+ (re.* (str.to_re "!!!"))) (re.++ (re.+ (re.+ (str.to_re """"""))) (re.++ (re.* (re.* (str.to_re "###"))) (re.++ (re.* (re.* (str.to_re "$$"))) (re.++ (re.+ (re.* (str.to_re "%%%"))) (re.++ (re.union (re.+ (str.to_re "&")) (re.+ (str.to_re "'"))) (re.++ (re.+ (re.+ (str.to_re "(("))) (re.++ (re.union (re.+ (str.to_re ")")) (re.+ (str.to_re "**"))) (re.++ (re.* (re.+ (str.to_re "+"))) (re.++ (re.+ (re.+ (str.to_re ",,"))) (re.++ (re.+ (re.* (str.to_re "--"))) (re.++ (re.union (re.* (str.to_re "...")) (re.* (str.to_re "/"))) (re.++ (re.* (re.* (str.to_re ":"))) (re.++ (re.* (re.union (str.to_re ";;") (str.to_re "<<<"))) (re.++ (re.* (re.+ (str.to_re "=="))) (re.++ (re.+ (re.+ (str.to_re ">>>"))) (re.++ (re.union (re.+ (str.to_re "?")) (re.+ (str.to_re "@@@"))) (re.++ (re.union (re.* (str.to_re "[[[")) (re.* (str.to_re "\\\\"))) (re.++ (re.union (re.* (str.to_re "]]]")) (re.* (str.to_re "^"))) (re.++ (re.union (re.+ (str.to_re "___")) (re.+ (str.to_re "`"))) (re.++ (re.union (re.* (str.to_re "{{{")) (re.* (str.to_re "|||"))) (re.++ (re.* (re.+ (str.to_re "}}}"))) (re.++ (re.+ (re.+ (str.to_re "~~"))) (re.++ (re.union (re.* (str.to_re "00")) (re.* (str.to_re "111"))) (re.++ (re.union (re.* (str.to_re "2")) (re.* (str.to_re "3"))) (re.++ (re.+ (re.* (str.to_re "44"))) (re.++ (re.union (re.* (str.to_re "555")) (re.* (str.to_re "666"))) (re.++ (re.+ (re.+ (str.to_re "777"))) (re.++ (re.* (re.* (str.to_re "8"))) (re.++ (re.union (re.+ (str.to_re "99")) (re.+ (str.to_re "a"))) (re.++ (re.* (re.union (str.to_re "b") (str.to_re "ccc"))) (re.++ (re.union (re.+ (str.to_re "d")) (re.+ (str.to_re "eee"))) (re.++ (re.union (re.+ (str.to_re "fff")) (re.+ (str.to_re "gg"))) (re.+ (re.* (str.to_re "hh")))))))))))))))))))))))))))))))))))))))))))))))))))))))))))))))))))))))))))))))))))))))))))))))))))))))))))))))))))))))))))))))))))
(check-sat)